#=======================================================
# FHI-aims file: sym_slab0_10_layer/geometry.in
# Created using the Atomic Simulation Environment (ASE)
# Wed Jul 26 14:56:47 2023
#=======================================================
lattice_vector 2.8697644101754571 0.0000000000000000 0.0000000000000002 
lattice_vector 1.4348823132133588 2.4852883181101091 0.0000000000000002 
lattice_vector 0.0000000000000000 0.0000000000000000 70.2946014612062129 
atom 2.8697657692624094 2.4852776292055161 25.1888988569322194 Co
    initial_charge         2.000000
atom 2.8697658135471520 0.8284177561487358 27.5320522389724260 Co
    initial_charge         2.000000
atom 1.4348837608697926 1.6568462012020684 29.8752056210126362 Co
    initial_charge         2.000000
atom 1.4348838051545370 -0.0000136718547099 32.2183590030528393 Co
    initial_charge         2.000000
atom 2.8697661626526334 0.8284147731986182 34.5615123850930530 Co
    initial_charge         2.000000
atom 1.4348841099752787 1.6568432182519490 36.9046657671332525 Co
    initial_charge         2.000000
atom 1.4348841542600204 -0.0000166548048262 39.2478191491734734 Co
    initial_charge         2.000000
atom 2.8697665117581188 0.8284117902485000 41.5909725312136800 Co
    initial_charge         2.000000
atom 1.4348844590807608 1.6568402353018319 43.9341259132538724 Co
    initial_charge         2.000000
atom 2.8697656389944073 0.8284192476237965 24.0173221659121161 O
    initial_charge        -2.000000
atom 1.4348835863170497 1.6568476926771261 26.3604755479523227 O
    initial_charge        -2.000000
atom 2.8697659438151528 2.4852761377304566 28.7036289299925365 O
    initial_charge        -2.000000
atom 2.8697659880998923 0.8284162646736788 31.0467823120327431 O
    initial_charge        -2.000000
atom 1.4348839354225349 1.6568447097270096 33.3899356940729390 O
    initial_charge        -2.000000
atom 2.8697662929206365 2.4852731547803368 35.7330890761131457 O
    initial_charge        -2.000000
atom 2.8697663372053768 0.8284132817235605 38.0762424581533736 O
    initial_charge        -2.000000
atom 1.4348842845280196 1.6568417267768925 40.4193958401935660 O
    initial_charge        -2.000000
atom 1.4348843288127608 -0.0000181462798881 42.7625492222337868 O
    initial_charge        -2.000000
atom 2.8697666863108622 0.8284102987734406 45.1057026042739793 O
    initial_charge        -2.000000
